p edge 30 41 15
v 3 5 13 24
v 1 29
v 2 12 26
v 2 16 28
v 2 21 25
v 1 17
v 2 9 18
v 4 6 14 22 30
v 2 19 27
v 2 10 15
v 3 4 8 11
v 2 7 23
v 2 2 20
v 1 3
v 1 1
e 1 6
e 1 13
e 1 18
e 1 30
e 2 10
e 2 15
e 2 24
e 3 8
e 3 18
e 5 9
e 5 14
e 5 23
e 6 22
e 7 11
e 8 11
e 8 22
e 9 29
e 11 16
e 11 21
e 11 22
e 12 14
e 12 21
e 13 16
e 13 17
e 15 18
e 15 20
e 15 28
e 16 21
e 16 27
e 17 18
e 17 21
e 18 25
e 18 30
e 20 21
e 20 22
e 21 27
e 21 30
e 23 25
e 24 25
e 24 30
e 28 30
